
 102   30
  10   10   10   10   10   10   10   10   10   10   10   10   10   10   10   10   10   10   10   10   10   10   10   10   10   10   10   10   10   10

   0   0   0   0   0   0   0   0   0   0   0   0   0   0   0   0   0   0   0   0   0   0   0   0   0   0   0   0   0   0   0  28 2 3 4 5 6 7 8 9 10 11 12 13 16 17 18 19 20 21 22 23 24 26 27 28 30 34 35 36 
   6   0   0   0   0   0   1   0   0   0   0   0   0   0   0   0   0   1   3   0   1   0   0   0   0   0   1   0   0   0   0  10 75 69 68 66 53 48 42 39 15 14 
   7   0   0   0   0   0   0   0   0   0   1   0   0   0   0   1   0   0   0   0   0   0   1   0   0   1   0   2   0   0   0  14 75 73 69 68 60 44 41 40 39 38 37 33 31 29 
   4   0   0   0   0   0   0   0   0   0   0   0   0   0   0   0   0   0   0   0   0   0   0   0   0   0   0   0   4   0   0  13 98 66 61 60 56 51 50 48 40 38 32 31 29 
   6   0   0   0   0   0   0   0   0   0   0   0   0   0   0   0   0   0   0   0   0   0   0   0   0   0   0   0   6   0   0  14 74 61 59 55 53 52 50 47 45 44 43 41 33 25 
   9   0   0   0   0   2   0   0   0   0   0   0   1   2   0   0   0   0   0   0   0   0   0   0   0   0   0   5  10   2   0  17 101 100 98 97 74 72 69 66 64 61 59 58 55 48 46 45 25 
   9   1   0   1   0   0   0   1   0   1   3   0   0   0   0   0   0   0   0   0   0   0   0   0   0   0   0   0   0   0   0  17 101 75 74 73 69 67 66 61 60 59 57 55 54 52 49 47 33 
   2   4   0   5   0   0   0   0   0   0   0   0   0   0   0   5   0   0   0   1   0   0   0   0   2   0   0   0   0   0   0  15 101 100 75 74 67 66 63 59 57 56 51 49 41 38 32 
   9   0   0   0   0   0   0   0   1   0   0   1   0   0   0   0   0   0   0   8   0   1   0   0   0   0   0   0   0   0   0  14 99 74 73 69 66 65 60 59 53 50 48 44 41 39 
   8   0   0   0   0   0   0   0   0   0   0   0   0   0   0   0   2   0   0   0   0   0   0   0   0   0   5   0   0   0   0  16 101 100 99 90 72 71 68 65 64 62 59 55 50 48 46 45 
  10   0   0   0   0   5   0   0   0   0   0   0   0   0   0   0   0   0   0   0   9   0   0   0   0   0   7   0   0   0   0  12 101 75 74 73 68 63 60 59 58 44 41 38 
   9   0   0  10   0   0   0   9   0   0   0   0   0   9   0   0   0   0   0   0   0   0   0   0   6   8   0   0   0   0   0  18 101 99 98 97 96 95 90 86 71 69 68 66 65 64 63 55 48 44 
   8   0   0   0   0   0   0   0   0   0   0   0   0   0   0   0   5   0   0   0  10   0   0   0   0   6   7   0   0   0   0  17 101 100 99 98 91 74 73 72 71 66 64 63 62 55 51 46 45 
   6   0   0   0   0  10   6   0   4  10   4   0   0   0   0   0   0   0   0   0   0   0   0   0   0   0   0   0   7   4   0  13 100 98 96 95 94 73 70 67 62 60 51 50 29 
   5   0   0   0   0   7   0   0   0   9   0   0   0   7   1   0   0   3   0   0   0   0   0   0   0   5   0   0   3   0   0  16 101 100 93 91 73 72 71 67 64 63 61 59 58 55 52 45 
   1   0   0   0   0  10   8   0   0   0   0   0   0   0   8   0   0   0   0   0   0   0   5   2   0   0   0   0   0   0   0  17 101 100 98 97 94 90 84 81 75 71 66 65 63 58 57 56 46 
   3   0   0   0   0   0   0   0   0   0   0   0   0   0   0   0   0   0   4   0   7   0   0   0  10   0   0   0   0   0   0  21 101 98 96 95 94 93 92 90 89 86 84 83 75 73 72 71 68 62 59 57 50 
   4   0   0   0   1   0   0   6   0   0   0   0   4   0   0   0   0   0   0   0   6   3   0   0   0   0   0   0   0   0   0  17 101 99 97 96 95 94 91 89 87 86 83 71 63 61 59 52 48 
   4   0   0   0   1   0   0   6   0   0   0   0   0   0   0   0   0   0   0   0   0   0   0   0   0   0   0   2   0   0   0  15 100 98 97 96 95 91 87 86 85 83 72 58 55 53 48 
   7   0   0   0   0   0   0   0   7   0   0   3   0   0   0   0   9  10   0   0   0   0   0   0   0   0   0   0   0   0   0  14 96 95 93 91 82 72 71 65 61 58 57 55 54 51 
   6   0   0   0   0   0   0   0   0   0   0   0   0   0   9   0   0   0   0   0   0   0   0   0   0   5   0   0   0   0   0  10 98 91 90 72 65 59 58 55 50 45 
   3   0   1   0   0   7   5   0   0   0   0   7   0   0   0   0   0   0   0   0   0   0   0   0   0  10   0   0   0   0   0  16 97 96 95 93 91 89 82 73 72 66 65 60 59 58 57 51 
   6   0   0   0   7   0   0   7   0   0   0   0   0   0   3   2   0   0   0   0   0   0   6   0   0   0   6   0   0   0   0  20 100 99 98 97 95 93 91 90 87 86 84 80 78 75 73 71 70 66 63 55 
  10   0   0   0   0   0   0   0   0   0   0   0   0   8   0   0   0   0   0   0   6   0   5   0   0   0   0   0   0   0   0  15 100 96 94 90 89 87 86 83 79 71 66 62 60 59 48 
   9   5   0   0   0   0   5   0   0   0   0   0   0   0   0   0   0   0   7   0   0   0   0   0   8   0   0   8   5   4   0  13 99 96 90 85 83 73 68 67 65 63 62 60 56 
   5   0   0   0   0   0   0   0   0   0   0   0   0   0   0   0   0   0   0   0   0   0   0   0   0   0   9   0   0   0   0  20 101 99 98 95 93 92 90 87 85 84 83 82 80 79 78 74 73 71 70 55 
   2   0   8   0   0   0   4   0   0   0   0   0   0   0   0   0   9   0   0   4   0   0   0   0   0   3   0   0   0   0   0  11 101 100 99 94 91 86 85 81 73 49 48 
   9   0   0   0   0   0   0   0   0   0   0   0   0   0   0   0   0   8   0   0   0   0   0   0   0   6   0   0   0   0   0  18 96 94 90 89 88 87 86 84 82 80 78 74 73 72 69 68 66 64 
   5   0   0   5   0   0   0   0   0   0   0   0   0   0   0   0   8   0   0   7   0   0   0   9   0   0   0   0   0   0   0  11 101 97 92 89 87 86 84 71 64 59 47 
   9   0   0   0   0   0   0   0   7   0   0   0   0   0   0   0   0   0   2   0   0   0   0   0   0   0  10   0   0   0   0  14 97 96 95 92 90 88 84 83 82 79 74 59 58 55 
   6   0   0   0   0   7   8   0   0   0   0   0   7   0   0   0   0   0   0   0   0   0   0   0   0   0   0   0   0   0   0   9 101 94 93 91 85 70 65 58 45 
   6   0   0   0   5   0   0   0   0   0   0   0   0   3   0   5   0   0   0   0   0   0   0   0   0   0   0   0   0   0   0  16 97 96 95 92 91 90 87 86 84 83 82 79 78 73 71 55 
   5   0   0   0   0   0   0   6   0   0   0   0   5   0   7   0   0   0   0   0   0   0   0   0   3   0   0   5   0   0   0  15 98 96 95 94 89 86 85 82 81 79 71 70 65 64 62 
   1   0   0   0   0   0   0   0   0   8   0   0   0   0   0  10   0   0   0   0   0   0   0   0   0   0   0   0   0   0   0  15 99 98 97 96 94 84 83 82 81 73 71 66 64 62 57 
   8   0   0   0   7   0   0   0   0   0   0   0   0   0   7   0   0   0   5   0   4   0   0   6   0   0   0   0   0   0   0  11 100 95 94 93 86 83 77 76 68 62 53 
   5   0   0   0   0   0   0   6   0   0   0   0   0   0   0   0   0   0   0   0   0   0   0   0   0   0   0   0   0   0   0  15 99 96 92 91 90 89 87 86 85 81 73 71 70 69 62 
  10   0   0   0   0   0   0   0   0   0   0   0   0   0   0   0   0   0   0   0   0   3   0   0   0   4   0   0   0   0   0   8 91 90 87 85 83 71 63 48 
   6   0   0   0   0   0   0   0   0   0   0   0   0   0   7   0   0   0   0   7   8   0   0   0   6   0   0   0   0   8   0  12 99 95 93 90 86 85 84 83 82 79 62 55 
   9   0   0   8   0   0   0   7   0   0   0   0   0   9   0   0   0   0   0   0   0   9   0   0   0   0   0   0   5   0   0  12 95 93 92 91 90 88 86 84 83 78 63 55 
   7   0   0   0   0   6   8   0   3   0   0   0   6   0   0   0   0   0   0   0   0   0   6   0   0   0   0   0   0   0   1  13 100 96 95 93 92 91 90 88 86 74 72 63 59 
   1   0   0   0   0   5   0   0   0   0   0   0   0   0   0   0   0   0   0   0   0   0   0   0   6   0   0   0   0   0   6  13 98 97 91 90 89 84 83 82 81 79 78 71 64 
  10   0   0   0   0   0   0   0   3   0   0   0   0  10   0   0   0   0   0   0   0   0   0   0   0   0   0   0   0   0   0   9 97 95 87 86 85 83 81 62 57 
   9   0   0   0   0   9   7   0   0   0   0   0   0   2   0   0   0   0   5   0   0   0   0   0   0   0   0   0   0   0   0  10 96 94 91 86 83 81 80 79 77 60 
   1   0   0   0   0   0   0   0   0   0   0   3   0   0   0   0   0   0   0   2   0   0   0   0   0   0   0   0   0   0   0   9 100 93 89 87 83 76 72 70 62 
   1   0   0   0   0   0   0   0   0   0   0   0   0   0   0   0   5   0   0   0   0   0   0   0   0   0   0   5   0   6   6  12 96 95 92 87 86 84 83 81 80 79 78 76 
   1   0   0   0   0   0   0   0   0   3   0   0   0   0   0   0   0   0   7   0   0   0   0   0   0   0   0   0   0   0   0   9 95 93 88 85 83 82 79 70 67 
   4   0   0   5   0   0   0   0   0   0   6   0   0   0   0   0   0   0   0   0   0   0   0   0   5   7   0   0   0   0   0   8 99 93 91 81 80 78 77 63 
   5   0   0   0   0   7   0   0   0   0   0   0   0   0   0   0   0   0   0   3   0   7   0   6   0   0   0   0   0   0   0   6 93 92 84 82 80 57 
   1   0   0   0   0   0   3   0   0   0   0   0   0   0   0   0   0   0   0   8   0   0   0   0   0   0   0   0   5   0   0   8 97 92 88 87 80 77 76 72 
   4   0   0   0  10   0   0   0   0   0   0   0   0   0   0   6   0   0   0   0   0   0   0   0   0   0   6   0   7   0   0   7 97 88 87 81 80 76 63 
   8   0   0   0   0   0   0   0   0   0   0   0   0   0   0   0   9   0   0   0   5   0   0   4   0   9   0   0   0   0   0   8 90 87 86 85 83 80 77 76 
   5   0   0   0   0   5   0   0   9   0   7   4   7   0   0   9   0   0   0   0   0   0   0   0   0   0   4   0  10   0   0   6 98 92 84 81 77 62 
   5   0   0   0   0   0   0   8   7   0   0   0   9   0   0   0   0   0   0   6   0   0   0   0   0   0   0   0   0   0   0   5 90 89 78 71 63 
   2  10   8   0   0   6   0   0  10   0   0   0   0   0   0   0   0   0   0   0   0   0   0  10   0   0  10   0   0   0   0   5 98 87 85 79 70 
   2   0   0   7   0   0   0   0   0   0   8  10   0   0   0   0   0   0   6   0   0   0   0   4   7   0   0   0   0   0   0   5 94 89 81 77 76 
  10   0   0   0   0   0   0   0   0   0   0  10   0   0   0   0   0   0   0   0   0   0   0   0   0   0   0   0   0   0   0   4 91 89 76 70 
   1   0   0   0   0   0   0   0   0   6   0   0   4   0   0   0   3   0   0   0   0   0   6   0   0   6   0   0   0   0   0   3 78 76 70 
  10   0   0   0   0   0   0   0   6   0   0   0   0   0   0   0   0   0   0   4   0   0   0   0   0   0   0   0   0   0   0   2 77 62 
   9   0   0   0   0   0   8   4   0   0   0   0   0   0   0   0   0   0   0   0   0   0   0   0   0   0   0   0   0   0   0   3 85 77 76 
   1   0   0   7   0   0   0   0   0   7   0   0   0   5   0   0   0   0   0   0   0   0   0   0   0   0   0   0   0   0   0   3 84 78 76 
   5   0   0   0   0   6   0   0   0   0   9   7   0   0   0   0   0   0   0   0   0   0   5   0   0   0   0   0   0   4   0   3 90 84 76 
   5   0   0   0   0   0   0   0   0   3   0   0   0   0   0   0   0   0  10   0   0   0   0   0   0   0   0   0   0   0   0   2 80 78 
   5   5   0   0   9   0   0   0   0   0   0   8   0   0   0   0   0   9   0   0   0   0   0   0   0   0   0   0   0   3   0   2 82 79 
  10   0   0   0   0   5   0   0   0   0   0   0   0   0   0   0   0   0   0   9   3   5   6   0   0   0   0   0   0   0   0   2 77 76 
   2   0   0   0   0   0   0   0   0   0   0   0   0   0   0   0   4   0   0   0   0   4   0   0   0   0   0   0   0   7   0   2 92 87 
   7   8   0   0   0   0   0   0   0   0   0   0   0   0   0   0   0   0   0   0   0   0   8   1   0   0   6   0   0   0   0   2 85 76 
   2   0   0   0   0   0   0   0   0   0   0   0   0   0   0   5   0   0   0   0   9   9   0   0   0   0   0   0   0   0  10   2 86 76 
   2   0   8   0   0   0   0   0   0   0   0   0   0   0   0   0   0   0  10   6   0   0   7   0   0   0   0   0   0   7   0   2 91 81 
   5   0   0   0   0   0   0   0   8   0   0   0   4   0   0   0   4   0   6   0   0   0   0   0   0   0   0   0   0   0   0   2 83 76 
   7   0   0   0   0   0   0   0   0   0   0   0   0   5   0   0   0   0   6   8   0  10   0   0   6   9   5   0   0   9   0   1 77 
   8   0   0   0   4   0   0   0   0   0   0   0   0   0   0   0   0   0   0   0   0   0   0   0   0   0   2   0   0   0   0   1 88 
   3   8   0   0   0   0   0   0   0   0   0  10   0   0   0   0   0   0   4   0   0   0   0   0   0   0   0   0   0  10   0   1 79 
   3   0   0   0   0   0   0   0   0   0   0   0   0   0   0   0   0   0   8   0   7   0   0   6   0   0   0   0   5   0   0   1 76 
   7   0   0   0   0   0   0   0   0   0   0   0  10   0   0   7   0   0   0   0   0   0   0   0   0   0   0   0   0   0   0   1 76 
   4   0   0   0   0   0   0   0   3   0   6   0   0   0   0   0   0   0   0   0   0   0   0   8   0   0   0   0   7   0   7   1 76 
   2   0   0   0   0   0   0   0   0   0   0   0   0   0   0   0   0   0   0   0   0   3   0   0   0   0   0   0   0   0   0   1 102
   2   0   3   0   0   0   0   0   0   0   0   0   0   0   0   0   2   0   0   0   0   0   0   0   0   0   0   0   0   0   0   1 102
   3   3   0   0  10   4   0   0   0   0   0   7   0   0   0   0   0   0   0   8   0   0   0   0   0   0   0   0   0   0   0   1 102
   1   0   8   0   4   0   0   0   7   0   0   0   0   0   0   0   0   7   0   0   0   0   0  10   0   0   0   0   0   0   0   1 102
   2   0   0   0   0   0   0   0   0   0   0   0   0   4   0   0   0   0   0   0   0   0   6   0   0   0   0   0   0   0   0   1 102
   3   0   5   0   8   0   0   0   0   0   0   0   0   0   0   0   7   0   0   0   0   9   0   0   0   0   0   0   0   0   0   1 102
   3   9   0   0   0   0   0   6   0   0   0   0   9   0   6   0   0   0   0   0   5   7   0   0   0   0   0   0   0   0   0   1 102
  10   0   0   0   0   0   0   0   7   7   0   0   0   0   0   0   0   0   6   0   0   0   0   6   0   0   6   0   0   0   0   1 102
   9   0   0   0   7   6   0   0   0   0   0   0   0   0   0   0  10   0   0   0   0   0   7   0   0   0   0   0   0   0   0   1 102
   4   0   0   0   0   0   0   0   0   0   0   0   0   0   0   8   0   0   0   0   0   0   0   6   0   0   0   0   0  10   0   1 102
   8   0   0   0   0   0   0   0   0   0   0   3   0   0   0   6   0   0   0   0   0   0   0   0   0   0   0   0   0   0   0   1 102
   4   0   0   0   9   0   0   0   0   0   0   0   0   0   0   5   0   0   0   0   6   0  10   0   0   0   0   0   0   0   0   1 102
   3   0   0   0   6   3   6   0   8   0   8   0   0   0   0   0   0   0   7   0   0   0   0   0   0   0   0   0   8   0   0   1 102
   9   0   0   0   0   0   0   0   0   0   0   0   0   0   0   0   0   0   0   0   0   0   0   0   0   0   0   0   0   0   0   1 102
   6   0   0   0   0   0   0   0   0   0   0   0   0   0   0   9   0   0   0   0   2   8   0   0   0   0   0   0   0   0   0   1 102
   8   0   0   0   0   6   0   0   0   0   0   7   0   0   0   0   0   0   0   0   0   0   0   0   8   0   0   0   0   2   0   1 102
  10   0   0   0   0   0   0   0   0   0   8   0   0   0   0   0   0   0   0   0   0   0   0   0   0   0   4   7   7   0   0   1 102
   6   0   0   0   0   0   9   0   0   6   0   4   0   7   0   0   6   0   0   0   0   0   0   0   0   0   0   0   0   0   0   1 102
   3   6   0   0   0   0   0   0   0   0   0  10   0   7   0   0   0   0   0   0   0   0   0   7   0   5   0   0   2   0   0   1 102
   3   0   5   6   0   0   0   0   0   0   0   0   0   0   0   0   0   0   0   0   6   0   0   5   0   0   9   0   0   8   0   1 102
   9   0   0   0   0   0   0   0   0   0   0   0   0   0   0   0   0   0   0   0   0   0   0   0   0   0   5   0   0   6   0   1 102
   8   0   0   0   4   0   0   0   0   0   0   5   0   0   0   0   0   6   0   0   0   0   0   0   0   0   0  10   5   0   0   1 102
   3   0   0   0   4   0   0   0   0   0   0   5   0   0   0   0   0   7   0   0   0   0   0   0   0   0   0  10   0   0   0   1 102
   9   7   0   0   0   0   0   0   0   7   0   0   0   0   0   0   0   0   0   0   8   0   0   0   0   0   0   0   0   0   0   1 102
   2   0   8   0   0   4   0   0   0   5   0   0   0   0   0   0   0   3   0   0   0   0   0   0   0   0   0   0   0   0   0   1 102
   4   0   0   0   0   0   0   0   0   0   0   4   0   0   0   0   7   0   0   9   0   0   0   0   5   0   0   0   0   0   0   1 102
   0   0   0   0   0   0   0   0   0   0   0   0   0   0   0   0   0   0   0   0   0   0   0   0   0   0   0   0   0   0   0   0 
